c CNF file corresponding to a (partial) station packing problem.
p cnf 6968 213
6953 6954 6955 6956 6957 6958 6959 6960 6961 6962 6963 6964 6965 6966 6967 6968 0
-6953 -6954 0
-6953 -6955 0
-6953 -6956 0
-6953 -6957 0
-6953 -6958 0
-6953 -6959 0
-6953 -6960 0
-6953 -6961 0
-6953 -6962 0
-6953 -6963 0
-6953 -6964 0
-6953 -6965 0
-6953 -6966 0
-6953 -6967 0
-6953 -6968 0
-6954 -6955 0
-6954 -6956 0
-6954 -6957 0
-6954 -6958 0
-6954 -6959 0
-6954 -6960 0
-6954 -6961 0
-6954 -6962 0
-6954 -6963 0
-6954 -6964 0
-6954 -6965 0
-6954 -6966 0
-6954 -6967 0
-6954 -6968 0
-6955 -6956 0
-6955 -6957 0
-6955 -6958 0
-6955 -6959 0
-6955 -6960 0
-6955 -6961 0
-6955 -6962 0
-6955 -6963 0
-6955 -6964 0
-6955 -6965 0
-6955 -6966 0
-6955 -6967 0
-6955 -6968 0
-6956 -6957 0
-6956 -6958 0
-6956 -6959 0
-6956 -6960 0
-6956 -6961 0
-6956 -6962 0
-6956 -6963 0
-6956 -6964 0
-6956 -6965 0
-6956 -6966 0
-6956 -6967 0
-6956 -6968 0
-6957 -6958 0
-6957 -6959 0
-6957 -6960 0
-6957 -6961 0
-6957 -6962 0
-6957 -6963 0
-6957 -6964 0
-6957 -6965 0
-6957 -6966 0
-6957 -6967 0
-6957 -6968 0
-6958 -6959 0
-6958 -6960 0
-6958 -6961 0
-6958 -6962 0
-6958 -6963 0
-6958 -6964 0
-6958 -6965 0
-6958 -6966 0
-6958 -6967 0
-6958 -6968 0
-6959 -6960 0
-6959 -6961 0
-6959 -6962 0
-6959 -6963 0
-6959 -6964 0
-6959 -6965 0
-6959 -6966 0
-6959 -6967 0
-6959 -6968 0
-6960 -6961 0
-6960 -6962 0
-6960 -6963 0
-6960 -6964 0
-6960 -6965 0
-6960 -6966 0
-6960 -6967 0
-6960 -6968 0
-6961 -6962 0
-6961 -6963 0
-6961 -6964 0
-6961 -6965 0
-6961 -6966 0
-6961 -6967 0
-6961 -6968 0
-6962 -6963 0
-6962 -6964 0
-6962 -6965 0
-6962 -6966 0
-6962 -6967 0
-6962 -6968 0
-6963 -6964 0
-6963 -6965 0
-6963 -6966 0
-6963 -6967 0
-6963 -6968 0
-6964 -6965 0
-6964 -6966 0
-6964 -6967 0
-6964 -6968 0
-6965 -6966 0
-6965 -6967 0
-6965 -6968 0
-6966 -6967 0
-6966 -6968 0
-6967 -6968 0
1 2 3 4 5 6 7 8 9 10 11 12 13 14 0
-1 -2 0
-1 -3 0
-1 -4 0
-1 -5 0
-1 -6 0
-1 -7 0
-1 -8 0
-1 -9 0
-1 -10 0
-1 -11 0
-1 -12 0
-1 -13 0
-1 -14 0
-2 -3 0
-2 -4 0
-2 -5 0
-2 -6 0
-2 -7 0
-2 -8 0
-2 -9 0
-2 -10 0
-2 -11 0
-2 -12 0
-2 -13 0
-2 -14 0
-3 -4 0
-3 -5 0
-3 -6 0
-3 -7 0
-3 -8 0
-3 -9 0
-3 -10 0
-3 -11 0
-3 -12 0
-3 -13 0
-3 -14 0
-4 -5 0
-4 -6 0
-4 -7 0
-4 -8 0
-4 -9 0
-4 -10 0
-4 -11 0
-4 -12 0
-4 -13 0
-4 -14 0
-5 -6 0
-5 -7 0
-5 -8 0
-5 -9 0
-5 -10 0
-5 -11 0
-5 -12 0
-5 -13 0
-5 -14 0
-6 -7 0
-6 -8 0
-6 -9 0
-6 -10 0
-6 -11 0
-6 -12 0
-6 -13 0
-6 -14 0
-7 -8 0
-7 -9 0
-7 -10 0
-7 -11 0
-7 -12 0
-7 -13 0
-7 -14 0
-8 -9 0
-8 -10 0
-8 -11 0
-8 -12 0
-8 -13 0
-8 -14 0
-9 -10 0
-9 -11 0
-9 -12 0
-9 -13 0
-9 -14 0
-10 -11 0
-10 -12 0
-10 -13 0
-10 -14 0
-11 -12 0
-11 -13 0
-11 -14 0
-12 -13 0
-12 -14 0
-13 -14 0
